50 8
610 661
557 439
701 652
411 442
470 541
449 543
397 747
577 506
800 758
756 120
532 658
84 575
498 808
656 135
185 448
590 426
645 614
615 103
693 143
730 152
406 447
598 497
310 843
455 649
495 880
597 867
708 516
432 423
497 535
586 534
751 711
467 505
815 897
109 446
576 527
801 950
623 177
505 793
541 823
181 203
610 852
157 485
782 193
654 146
804 918
122 485
209 500
609 419
458 594
345 859
